p cnf 12 50 
-12 -6 1 0
-4 10 9 0
12 7 5 0
11 9 12 0
11 9 -4 0
-10 3 9 0
-12 -8 9 0
10 1 5 0
9 -5 7 0
5 -9 2 0
-6 5 -10 0
8 3 -1 0
-12 5 1 0
-6 -3 -2 0
-5 3 1 0
12 7 8 0
7 4 6 0
9 1 -6 0
-11 1 8 0
2 6 9 0
-10 -6 -7 0
-4 11 -3 0
9 11 -1 0
3 1 7 0
-3 6 9 0
7 -9 3 0
-9 -2 12 0
-5 1 2 0
2 -3 -10 0
-9 6 4 0
7 1 4 0
2 9 8 0
2 -12 -10 0
-4 11 1 0
8 1 -3 0
11 3 -1 0
-4 -10 -9 0
12 -5 8 0
9 -12 -8 0
4 10 -6 0
-10 9 11 0
2 5 3 0
-2 -12 -4 0
7 1 -12 0
-6 11 -3 0
-3 -7 -10 0
-9 3 11 0
6 -9 3 0
-5 2 11 0
-5 2 7 0
